c 
c U(n,d) graph
c graph gen seed     : 19471
c number of vertices : 60
c max number of edges: 1770
c Euclidean distance : 0.400000
c data structure     : sparse
c
c           Graph Stats
c number of vertices  : 60
c nonisolated vertices: 60
c number of edges     : 643
c edge density        : 0.363277
c max degree          : 35
c avg degree          : 21.43
c min degree          : 5
p col 60 643
e 1 60
e 1 58
e 1 56
e 1 55
e 1 51
e 1 50
e 1 45
e 1 43
e 1 42
e 1 41
e 1 33
e 1 31
e 1 24
e 1 18
e 1 15
e 1 9
e 1 4
e 2 59
e 2 53
e 2 52
e 2 49
e 2 48
e 2 44
e 2 35
e 2 32
e 2 25
e 2 23
e 2 22
e 2 20
e 2 16
e 2 14
e 2 7
e 2 6
e 2 3
e 3 59
e 3 58
e 3 56
e 3 55
e 3 52
e 3 50
e 3 49
e 3 46
e 3 45
e 3 44
e 3 43
e 3 42
e 3 40
e 3 39
e 3 38
e 3 35
e 3 33
e 3 30
e 3 26
e 3 25
e 3 23
e 3 22
e 3 20
e 3 19
e 3 18
e 3 16
e 3 15
e 3 14
e 3 13
e 3 10
e 3 9
e 3 7
e 3 5
e 3 4
e 4 60
e 4 59
e 4 58
e 4 56
e 4 55
e 4 52
e 4 51
e 4 50
e 4 46
e 4 45
e 4 44
e 4 43
e 4 42
e 4 40
e 4 39
e 4 38
e 4 33
e 4 31
e 4 30
e 4 25
e 4 23
e 4 20
e 4 19
e 4 18
e 4 17
e 4 16
e 4 15
e 4 13
e 4 10
e 4 9
e 4 7
e 5 57
e 5 54
e 5 46
e 5 40
e 5 39
e 5 38
e 5 37
e 5 36
e 5 33
e 5 28
e 5 27
e 5 26
e 5 21
e 5 19
e 5 17
e 5 13
e 5 10
e 6 59
e 6 49
e 6 46
e 6 44
e 6 40
e 6 38
e 6 36
e 6 35
e 6 34
e 6 27
e 6 22
e 6 21
e 6 14
e 7 59
e 7 58
e 7 56
e 7 55
e 7 53
e 7 52
e 7 50
e 7 49
e 7 48
e 7 47
e 7 45
e 7 44
e 7 43
e 7 42
e 7 35
e 7 32
e 7 30
e 7 25
e 7 23
e 7 22
e 7 20
e 7 18
e 7 16
e 7 14
e 7 9
e 7 8
e 8 56
e 8 53
e 8 52
e 8 48
e 8 47
e 8 45
e 8 43
e 8 32
e 8 30
e 8 23
e 8 20
e 8 16
e 9 60
e 9 59
e 9 58
e 9 56
e 9 55
e 9 52
e 9 51
e 9 50
e 9 48
e 9 45
e 9 43
e 9 42
e 9 41
e 9 39
e 9 33
e 9 31
e 9 30
e 9 25
e 9 24
e 9 23
e 9 20
e 9 19
e 9 18
e 9 16
e 9 15
e 9 13
e 10 59
e 10 58
e 10 57
e 10 55
e 10 54
e 10 50
e 10 46
e 10 40
e 10 39
e 10 38
e 10 37
e 10 36
e 10 33
e 10 28
e 10 27
e 10 26
e 10 19
e 10 18
e 10 17
e 10 13
e 10 12
e 11 60
e 11 33
e 11 19
e 11 17
e 11 15
e 11 12
e 12 57
e 12 54
e 12 39
e 12 37
e 12 33
e 12 29
e 12 26
e 12 19
e 12 17
e 12 13
e 13 59
e 13 58
e 13 57
e 13 55
e 13 54
e 13 50
e 13 46
e 13 40
e 13 39
e 13 38
e 13 37
e 13 36
e 13 33
e 13 28
e 13 27
e 13 26
e 13 25
e 13 19
e 13 18
e 13 17
e 13 15
e 14 59
e 14 49
e 14 46
e 14 44
e 14 40
e 14 38
e 14 35
e 14 34
e 14 32
e 14 27
e 14 25
e 14 22
e 14 21
e 15 60
e 15 58
e 15 56
e 15 55
e 15 51
e 15 50
e 15 45
e 15 43
e 15 42
e 15 41
e 15 39
e 15 33
e 15 31
e 15 30
e 15 24
e 15 19
e 15 18
e 15 16
e 16 60
e 16 59
e 16 58
e 16 56
e 16 55
e 16 53
e 16 52
e 16 50
e 16 48
e 16 47
e 16 45
e 16 44
e 16 43
e 16 42
e 16 41
e 16 32
e 16 31
e 16 30
e 16 25
e 16 24
e 16 23
e 16 20
e 16 18
e 17 57
e 17 54
e 17 39
e 17 38
e 17 37
e 17 33
e 17 29
e 17 28
e 17 26
e 17 19
e 18 60
e 18 59
e 18 58
e 18 56
e 18 55
e 18 52
e 18 51
e 18 50
e 18 45
e 18 44
e 18 43
e 18 42
e 18 41
e 18 39
e 18 33
e 18 31
e 18 30
e 18 25
e 18 24
e 18 23
e 18 20
e 18 19
e 19 60
e 19 58
e 19 57
e 19 56
e 19 55
e 19 54
e 19 51
e 19 50
e 19 45
e 19 43
e 19 42
e 19 39
e 19 33
e 19 26
e 20 59
e 20 58
e 20 56
e 20 55
e 20 53
e 20 52
e 20 48
e 20 47
e 20 45
e 20 44
e 20 43
e 20 42
e 20 35
e 20 32
e 20 30
e 20 25
e 20 23
e 20 22
e 21 59
e 21 54
e 21 49
e 21 46
e 21 40
e 21 38
e 21 37
e 21 36
e 21 35
e 21 34
e 21 28
e 21 27
e 21 26
e 22 59
e 22 53
e 22 52
e 22 49
e 22 44
e 22 35
e 22 32
e 22 25
e 22 23
e 23 60
e 23 59
e 23 58
e 23 56
e 23 55
e 23 53
e 23 52
e 23 50
e 23 48
e 23 47
e 23 45
e 23 44
e 23 43
e 23 42
e 23 32
e 23 30
e 23 25
e 23 24
e 24 60
e 24 58
e 24 56
e 24 55
e 24 51
e 24 50
e 24 45
e 24 43
e 24 42
e 24 41
e 24 31
e 24 30
e 25 59
e 25 58
e 25 56
e 25 55
e 25 53
e 25 52
e 25 50
e 25 49
e 25 48
e 25 46
e 25 45
e 25 44
e 25 43
e 25 42
e 25 40
e 25 39
e 25 38
e 25 35
e 25 33
e 25 32
e 25 30
e 26 57
e 26 54
e 26 46
e 26 40
e 26 39
e 26 38
e 26 37
e 26 36
e 26 33
e 26 28
e 26 27
e 27 59
e 27 57
e 27 54
e 27 46
e 27 40
e 27 39
e 27 38
e 27 37
e 27 36
e 27 34
e 27 28
e 28 57
e 28 54
e 28 46
e 28 40
e 28 39
e 28 38
e 28 37
e 28 36
e 28 34
e 29 57
e 29 54
e 29 37
e 30 60
e 30 58
e 30 56
e 30 55
e 30 53
e 30 52
e 30 50
e 30 48
e 30 47
e 30 45
e 30 44
e 30 43
e 30 42
e 30 41
e 30 32
e 30 31
e 31 60
e 31 58
e 31 56
e 31 55
e 31 51
e 31 50
e 31 45
e 31 43
e 31 42
e 31 41
e 31 33
e 32 59
e 32 53
e 32 52
e 32 49
e 32 48
e 32 47
e 32 44
e 32 35
e 33 60
e 33 59
e 33 58
e 33 57
e 33 56
e 33 55
e 33 51
e 33 50
e 33 45
e 33 43
e 33 42
e 33 39
e 33 38
e 34 49
e 34 46
e 34 40
e 34 38
e 34 36
e 35 59
e 35 53
e 35 49
e 35 46
e 35 44
e 35 40
e 36 57
e 36 54
e 36 46
e 36 40
e 36 38
e 36 37
e 37 57
e 37 54
e 37 46
e 37 40
e 37 39
e 37 38
e 38 59
e 38 57
e 38 54
e 38 46
e 38 44
e 38 40
e 38 39
e 39 59
e 39 58
e 39 57
e 39 55
e 39 54
e 39 50
e 39 46
e 39 42
e 39 40
e 40 59
e 40 57
e 40 54
e 40 46
e 40 44
e 41 60
e 41 56
e 41 55
e 41 51
e 41 50
e 41 45
e 41 43
e 41 42
e 42 60
e 42 58
e 42 56
e 42 55
e 42 52
e 42 51
e 42 50
e 42 45
e 42 43
e 43 60
e 43 58
e 43 56
e 43 55
e 43 52
e 43 51
e 43 50
e 43 48
e 43 45
e 44 59
e 44 58
e 44 55
e 44 53
e 44 52
e 44 49
e 44 46
e 45 60
e 45 58
e 45 56
e 45 55
e 45 52
e 45 51
e 45 50
e 45 48
e 46 59
e 46 57
e 46 54
e 46 49
e 47 53
e 47 52
e 47 48
e 48 56
e 48 53
e 48 52
e 49 59
e 50 60
e 50 58
e 50 56
e 50 55
e 50 51
e 51 60
e 51 58
e 51 56
e 51 55
e 52 58
e 52 56
e 52 55
e 52 53
e 53 56
e 54 57
e 55 60
e 55 59
e 55 58
e 55 56
e 56 60
e 56 58
e 58 60
e 58 59
